NAME /Users/henri/Research/solvers/instances/idol-instances/robust/collection/spp_dkp_Lefebvre_et_al_2026/shortest_path_4_10/uncertainty_sets/discrete_knapsack
ROWS
 N  OBJ
 L  primal_lower
COLUMNS
    MARKER    'MARKER'                 'INTORG'
    y[0,2]     OBJ        0
    y[0,2]     primal_lower -7.33
    y[0,3]     OBJ        0
    y[0,3]     primal_lower -0.23
    y[1,2]     OBJ        0
    y[1,2]     primal_lower -1.88
    y[1,3]     OBJ        0
    y[1,3]     primal_lower -5.5
    y[2,0]     OBJ        0
    y[2,0]     primal_lower -0.87
    y[2,1]     OBJ        0
    y[2,1]     primal_lower -5.52
    y[2,3]     OBJ        0
    y[2,3]     primal_lower -0.48
    y[3,0]     OBJ        0
    y[3,0]     primal_lower -8.55
    y[3,1]     OBJ        0
    y[3,1]     primal_lower -8.73
    y[3,2]     OBJ        0
    y[3,2]     primal_lower -4.64
    u[0,2]     OBJ        0
    u[0,2]     primal_lower 25
    u[0,3]     OBJ        0
    u[0,3]     primal_lower 39
    u[1,2]     OBJ        0
    u[1,2]     primal_lower 77
    u[1,3]     OBJ        0
    u[1,3]     primal_lower 60
    u[2,0]     OBJ        0
    u[2,0]     primal_lower 15
    u[2,1]     OBJ        0
    u[2,1]     primal_lower 85
    u[2,3]     OBJ        0
    u[2,3]     primal_lower 72
    u[3,0]     OBJ        0
    u[3,0]     primal_lower 89
    u[3,1]     OBJ        0
    u[3,1]     primal_lower 69
    u[3,2]     OBJ        0
    u[3,2]     primal_lower 23
    MARKER    'MARKER'                 'INTEND'
RHS
    RHS       primal_lower 89
BOUNDS
 LI BND       y[0,2]     0
 UI BND       y[0,2]     1
 LI BND       y[0,3]     0
 UI BND       y[0,3]     1
 LI BND       y[1,2]     0
 UI BND       y[1,2]     1
 LI BND       y[1,3]     0
 UI BND       y[1,3]     1
 LI BND       y[2,0]     0
 UI BND       y[2,0]     1
 LI BND       y[2,1]     0
 UI BND       y[2,1]     1
 LI BND       y[2,3]     0
 UI BND       y[2,3]     1
 LI BND       y[3,0]     0
 UI BND       y[3,0]     1
 LI BND       y[3,1]     0
 UI BND       y[3,1]     1
 LI BND       y[3,2]     0
 UI BND       y[3,2]     1
 LI BND       u[0,2]     0
 UI BND       u[0,2]     1
 LI BND       u[0,3]     0
 UI BND       u[0,3]     1
 LI BND       u[1,2]     0
 UI BND       u[1,2]     1
 LI BND       u[1,3]     0
 UI BND       u[1,3]     1
 LI BND       u[2,0]     0
 UI BND       u[2,0]     1
 LI BND       u[2,1]     0
 UI BND       u[2,1]     1
 LI BND       u[2,3]     0
 UI BND       u[2,3]     1
 LI BND       u[3,0]     0
 UI BND       u[3,0]     1
 LI BND       u[3,1]     0
 UI BND       u[3,1]     1
 LI BND       u[3,2]     0
 UI BND       u[3,2]     1
ENDATA
